(declare-rel fail ())
(declare-rel inv2 (Int Int Int Int Int Int))
(declare-var A Int)
(declare-var B Int)
(declare-var C Int)
(declare-var D Int)
(declare-var E Int)
(declare-var F Int)
(declare-var G Int)
(declare-var H Int)
(declare-var I Int)
(rule (=> (and (= G 0)
         (= D A)
         (= I C)
         (= A B)
         (= C (* 2 B))
         (= A B)
         (= C (* 2 B))
         (= 1000 B))
    (inv2 G D I C B A)))
(rule (let ((a!1 (and (inv2 G D I C B A)
                (= E (+ 1 G))
                (= H (ite (>= G A) (+ D 1) D))
                (= F (ite (>= D C) (+ I 1) I)))))
  (=> a!1 (inv2 E H F C B A))))
(rule (=> (and (inv2 G D I C B A) (>= D C) (not (= G I))) fail))
(query fail)

